# Solution for model count
# Objective value = 10
z#1 0
z#2 0
z#3 0
z#4 0
z#5 0
z#6 1
z#7 0
z#8 1
z#9 0
z#10 1
z#11 1
z#12 1
z#13 1
z#14 0
z#15 1
z#16 0
z#17 0
z#18 1
z#19 0
z#20 0
z#21 1
z#22 1
z#23 0
z#24 0
x#24 0
x#23 0
x#22 2843
x#21 218
x#20 0
x#19 0
x#18 201
x#17 0
x#16 0
x#15 877
x#14 0
x#13 2613
x#12 205
x#11 911
x#10 111
x#9 0
x#8 627
x#7 0
x#6 1394
x#5 0
x#4 0
x#3 0
x#2 0
x#1 0
